50	100	100	100
82	61	95
79	98	34
52	91	11
51	91	21
32	65	3
31	74	32
46	87	39
31	46	8
9	11	7
2	94	12
7	98	55
6	61	57
84	91	76
77	65	58
67	43	35
18	43	17
39	11	85
3	17	5
10	30	52
38	9	56
45	59	85
28	12	61
35	64	33
73	97	4
40	31	72
83	34	82
39	71	87
31	86	27
83	62	95
39	27	93
87	3	77
47	22	23
41	29	50
26	52	24
41	92	30
81	41	88
92	91	81
27	10	90
27	9	24
6	13	11
92	57	13
21	61	92
54	59	86
3	61	51
88	18	95
68	61	82
56	4	26
60	93	96
86	63	48
74	11	65
